c "460337.clq"
p edge 100 1344
e 1 17
e 1 19
e 1 26
e 1 31
e 1 34
e 1 39
e 1 41
e 1 42
e 1 59
e 1 60
e 1 69
e 1 83
e 1 98
e 2 17
e 2 18
e 2 19
e 2 20
e 2 22
e 2 23
e 2 27
e 2 30
e 2 31
e 2 35
e 2 39
e 2 48
e 2 52
e 2 53
e 2 55
e 2 61
e 2 63
e 2 65
e 2 68
e 2 72
e 2 76
e 2 78
e 2 86
e 2 87
e 2 95
e 3 17
e 3 18
e 3 19
e 3 23
e 3 25
e 3 26
e 3 27
e 3 28
e 3 29
e 3 30
e 3 36
e 3 37
e 3 38
e 3 40
e 3 49
e 3 62
e 3 65
e 3 67
e 3 68
e 3 75
e 3 76
e 3 78
e 3 82
e 4 17
e 4 18
e 4 20
e 4 24
e 4 25
e 4 26
e 4 29
e 4 32
e 4 33
e 4 34
e 4 36
e 4 37
e 4 47
e 4 49
e 4 52
e 4 53
e 4 57
e 4 61
e 4 79
e 4 82
e 4 83
e 4 87
e 4 94
e 4 97
e 5 17
e 5 18
e 5 19
e 5 20
e 5 21
e 5 22
e 5 23
e 5 24
e 5 25
e 5 27
e 5 28
e 5 30
e 5 31
e 5 32
e 5 33
e 5 35
e 5 36
e 5 41
e 5 42
e 5 43
e 5 46
e 5 48
e 5 52
e 5 56
e 5 61
e 5 62
e 5 70
e 5 72
e 5 75
e 5 77
e 5 78
e 5 79
e 5 81
e 5 86
e 5 88
e 5 90
e 5 94
e 5 97
e 5 99
e 6 17
e 6 18
e 6 19
e 6 20
e 6 21
e 6 22
e 6 23
e 6 24
e 6 25
e 6 28
e 6 29
e 6 31
e 6 33
e 6 40
e 6 44
e 6 45
e 6 48
e 6 54
e 6 60
e 6 66
e 6 69
e 6 70
e 6 81
e 6 83
e 6 85
e 6 88
e 7 17
e 7 18
e 7 19
e 7 20
e 7 21
e 7 22
e 7 23
e 7 24
e 7 25
e 7 26
e 7 27
e 7 29
e 7 30
e 7 34
e 7 36
e 7 38
e 7 41
e 7 42
e 7 44
e 7 47
e 7 58
e 7 61
e 7 68
e 7 73
e 7 77
e 7 82
e 7 83
e 7 88
e 7 89
e 7 96
e 8 17
e 8 18
e 8 19
e 8 20
e 8 21
e 8 22
e 8 23
e 8 26
e 8 28
e 8 31
e 8 32
e 8 35
e 8 38
e 8 39
e 8 41
e 8 43
e 8 44
e 8 46
e 8 47
e 8 49
e 8 51
e 8 70
e 8 74
e 8 76
e 8 77
e 8 81
e 8 83
e 8 85
e 8 89
e 8 90
e 8 98
e 8 99
e 9 17
e 9 18
e 9 19
e 9 21
e 9 32
e 9 33
e 9 35
e 9 36
e 9 45
e 9 56
e 9 64
e 9 66
e 9 78
e 9 79
e 10 17
e 10 18
e 10 19
e 10 20
e 10 21
e 10 22
e 10 23
e 10 24
e 10 26
e 10 28
e 10 29
e 10 31
e 10 32
e 10 35
e 10 37
e 10 39
e 10 41
e 10 42
e 10 44
e 10 46
e 10 48
e 10 49
e 10 50
e 10 53
e 10 54
e 10 55
e 10 57
e 10 59
e 10 62
e 10 64
e 10 67
e 10 69
e 10 74
e 10 78
e 10 79
e 10 81
e 10 85
e 10 86
e 10 91
e 10 98
e 11 17
e 11 18
e 11 19
e 11 20
e 11 21
e 11 23
e 11 24
e 11 25
e 11 26
e 11 27
e 11 37
e 11 39
e 11 42
e 11 48
e 11 50
e 11 56
e 11 60
e 11 61
e 11 63
e 11 64
e 11 68
e 11 80
e 11 83
e 11 86
e 11 93
e 11 94
e 11 96
e 11 97
e 12 17
e 12 18
e 12 19
e 12 20
e 12 21
e 12 22
e 12 23
e 12 24
e 12 25
e 12 26
e 12 27
e 12 28
e 12 29
e 12 30
e 12 33
e 12 34
e 12 36
e 12 40
e 12 42
e 12 47
e 12 51
e 12 55
e 12 58
e 12 59
e 12 62
e 12 66
e 12 72
e 12 82
e 12 90
e 12 91
e 12 98
e 13 17
e 13 18
e 13 20
e 13 21
e 13 22
e 13 23
e 13 24
e 13 25
e 13 26
e 13 30
e 13 34
e 13 37
e 13 38
e 13 46
e 13 47
e 13 48
e 13 50
e 13 51
e 13 59
e 13 60
e 13 71
e 13 73
e 13 75
e 14 17
e 14 18
e 14 19
e 14 20
e 14 21
e 14 22
e 14 25
e 14 28
e 14 31
e 14 33
e 14 38
e 14 39
e 14 41
e 14 44
e 14 50
e 14 56
e 14 57
e 14 60
e 14 62
e 14 79
e 14 81
e 14 85
e 15 17
e 15 18
e 15 19
e 15 20
e 15 21
e 15 22
e 15 24
e 15 27
e 15 29
e 15 30
e 15 31
e 15 38
e 15 52
e 15 53
e 15 56
e 15 61
e 15 70
e 15 71
e 15 72
e 15 78
e 15 79
e 15 81
e 15 82
e 15 84
e 15 86
e 15 93
e 15 94
e 15 95
e 15 98
e 16 17
e 16 18
e 16 19
e 16 20
e 16 21
e 16 22
e 16 26
e 16 27
e 16 28
e 16 29
e 16 33
e 16 38
e 16 41
e 16 47
e 16 49
e 16 52
e 16 75
e 16 76
e 16 87
e 17 18
e 17 19
e 17 20
e 17 21
e 17 22
e 17 23
e 17 24
e 17 25
e 17 26
e 17 28
e 17 29
e 17 30
e 17 32
e 17 33
e 17 34
e 17 35
e 17 37
e 17 38
e 17 39
e 17 40
e 17 42
e 17 43
e 17 45
e 17 46
e 17 49
e 17 50
e 17 51
e 17 53
e 17 58
e 17 59
e 17 60
e 17 61
e 17 63
e 17 65
e 17 66
e 17 67
e 17 68
e 17 73
e 17 74
e 17 76
e 17 79
e 17 93
e 17 96
e 17 97
e 17 98
e 18 19
e 18 20
e 18 21
e 18 22
e 18 23
e 18 24
e 18 25
e 18 26
e 18 28
e 18 29
e 18 30
e 18 31
e 18 34
e 18 35
e 18 36
e 18 38
e 18 42
e 18 44
e 18 45
e 18 47
e 18 48
e 18 50
e 18 52
e 18 54
e 18 55
e 18 57
e 18 59
e 18 60
e 18 63
e 18 64
e 18 67
e 18 71
e 18 72
e 18 74
e 18 76
e 18 77
e 18 84
e 18 85
e 18 86
e 18 90
e 18 99
e 18 100
e 19 20
e 19 21
e 19 22
e 19 23
e 19 24
e 19 27
e 19 28
e 19 29
e 19 30
e 19 33
e 19 36
e 19 38
e 19 42
e 19 43
e 19 47
e 19 53
e 19 55
e 19 57
e 19 58
e 19 66
e 19 68
e 19 70
e 19 74
e 19 88
e 19 98
e 20 21
e 20 22
e 20 23
e 20 24
e 20 25
e 20 26
e 20 27
e 20 30
e 20 31
e 20 32
e 20 34
e 20 35
e 20 36
e 20 38
e 20 39
e 20 40
e 20 41
e 20 42
e 20 44
e 20 45
e 20 46
e 20 47
e 20 48
e 20 49
e 20 51
e 20 53
e 20 54
e 20 55
e 20 62
e 20 63
e 20 64
e 20 65
e 20 69
e 20 73
e 20 76
e 20 77
e 20 78
e 20 79
e 20 81
e 20 84
e 20 85
e 20 90
e 20 92
e 20 94
e 20 97
e 20 99
e 20 100
e 21 22
e 21 23
e 21 24
e 21 25
e 21 26
e 21 27
e 21 28
e 21 30
e 21 34
e 21 35
e 21 37
e 21 39
e 21 40
e 21 41
e 21 44
e 21 49
e 21 50
e 21 51
e 21 53
e 21 58
e 21 60
e 21 67
e 21 73
e 21 76
e 21 77
e 21 78
e 21 80
e 21 85
e 21 91
e 21 99
e 22 23
e 22 24
e 22 25
e 22 26
e 22 27
e 22 29
e 22 31
e 22 32
e 22 33
e 22 35
e 22 38
e 22 39
e 22 40
e 22 41
e 22 42
e 22 44
e 22 45
e 22 48
e 22 50
e 22 51
e 22 58
e 22 62
e 22 64
e 22 69
e 22 71
e 22 73
e 22 74
e 22 80
e 22 89
e 22 91
e 22 92
e 22 94
e 22 99
e 23 24
e 23 25
e 23 27
e 23 28
e 23 29
e 23 30
e 23 32
e 23 33
e 23 34
e 23 37
e 23 38
e 23 40
e 23 41
e 23 42
e 23 43
e 23 45
e 23 46
e 23 47
e 23 48
e 23 49
e 23 51
e 23 52
e 23 54
e 23 56
e 23 57
e 23 58
e 23 59
e 23 60
e 23 61
e 23 64
e 23 65
e 23 66
e 23 67
e 23 71
e 23 77
e 23 78
e 23 85
e 23 86
e 23 89
e 23 92
e 23 93
e 23 100
e 24 25
e 24 27
e 24 28
e 24 30
e 24 31
e 24 32
e 24 33
e 24 35
e 24 36
e 24 37
e 24 38
e 24 42
e 24 43
e 24 45
e 24 49
e 24 51
e 24 52
e 24 60
e 24 64
e 24 65
e 24 69
e 24 73
e 24 83
e 24 84
e 24 88
e 25 26
e 25 27
e 25 28
e 25 29
e 25 30
e 25 31
e 25 32
e 25 33
e 25 34
e 25 35
e 25 37
e 25 38
e 25 39
e 25 40
e 25 43
e 25 46
e 25 47
e 25 50
e 25 52
e 25 54
e 25 58
e 25 60
e 25 63
e 25 69
e 25 74
e 25 75
e 25 80
e 25 90
e 25 92
e 26 27
e 26 28
e 26 36
e 26 41
e 26 42
e 26 43
e 26 44
e 26 45
e 26 46
e 26 50
e 26 51
e 26 55
e 26 57
e 26 64
e 26 70
e 26 71
e 26 75
e 26 78
e 26 79
e 26 80
e 26 84
e 26 91
e 27 29
e 27 32
e 27 34
e 27 35
e 27 36
e 27 37
e 27 39
e 27 43
e 27 45
e 27 47
e 27 48
e 27 49
e 27 50
e 27 51
e 27 56
e 27 57
e 27 59
e 27 61
e 27 63
e 27 65
e 27 67
e 27 71
e 27 77
e 27 79
e 27 88
e 27 90
e 27 93
e 27 94
e 28 29
e 28 30
e 28 31
e 28 32
e 28 36
e 28 40
e 28 46
e 28 61
e 28 64
e 28 75
e 28 84
e 28 87
e 28 96
e 28 97
e 29 31
e 29 32
e 29 33
e 29 34
e 29 35
e 29 36
e 29 37
e 29 38
e 29 39
e 29 40
e 29 43
e 29 44
e 29 45
e 29 46
e 29 49
e 29 50
e 29 52
e 29 54
e 29 55
e 29 56
e 29 57
e 29 59
e 29 65
e 29 66
e 29 67
e 29 68
e 29 70
e 29 71
e 29 72
e 29 75
e 29 76
e 29 80
e 29 81
e 29 82
e 29 87
e 29 88
e 29 89
e 29 91
e 29 92
e 29 93
e 29 95
e 29 96
e 29 99
e 29 100
e 30 31
e 30 32
e 30 33
e 30 34
e 30 45
e 30 46
e 30 47
e 30 48
e 30 53
e 30 54
e 30 55
e 30 60
e 30 61
e 30 64
e 30 67
e 30 70
e 30 73
e 30 78
e 30 83
e 30 84
e 30 87
e 30 91
e 30 94
e 31 32
e 31 34
e 31 40
e 31 42
e 31 44
e 31 46
e 31 58
e 31 66
e 31 71
e 31 72
e 31 79
e 31 85
e 31 100
e 32 33
e 32 35
e 32 37
e 32 39
e 32 41
e 32 43
e 32 44
e 32 51
e 32 52
e 32 53
e 32 55
e 32 56
e 32 61
e 32 65
e 32 66
e 32 69
e 32 70
e 32 72
e 32 74
e 32 75
e 32 77
e 32 80
e 32 96
e 32 98
e 32 99
e 32 100
e 33 34
e 33 36
e 33 41
e 33 43
e 33 44
e 33 47
e 33 49
e 33 57
e 33 64
e 33 66
e 33 68
e 33 73
e 33 76
e 33 77
e 33 82
e 33 84
e 33 88
e 33 91
e 33 92
e 33 94
e 33 95
e 33 98
e 34 35
e 34 37
e 34 39
e 34 40
e 34 41
e 34 47
e 34 48
e 34 49
e 34 54
e 34 56
e 34 58
e 34 70
e 34 72
e 34 74
e 34 88
e 34 90
e 35 36
e 35 37
e 35 40
e 35 41
e 35 50
e 35 55
e 35 64
e 35 75
e 35 79
e 35 80
e 35 84
e 35 95
e 35 97
e 35 100
e 36 37
e 36 40
e 36 43
e 36 45
e 36 46
e 36 48
e 36 50
e 36 55
e 36 68
e 36 80
e 36 86
e 36 90
e 36 99
e 36 100
e 37 39
e 37 52
e 37 53
e 37 57
e 37 62
e 37 67
e 37 76
e 37 79
e 37 81
e 37 82
e 37 88
e 38 40
e 38 54
e 38 57
e 38 63
e 38 71
e 38 77
e 38 80
e 38 86
e 38 100
e 39 43
e 39 44
e 39 45
e 39 46
e 39 49
e 39 52
e 39 55
e 39 59
e 39 65
e 39 68
e 39 72
e 39 74
e 39 77
e 39 87
e 39 88
e 39 90
e 39 91
e 39 96
e 39 98
e 39 100
e 40 42
e 40 43
e 40 45
e 40 48
e 40 52
e 40 53
e 40 54
e 40 57
e 40 60
e 40 63
e 40 64
e 40 67
e 40 73
e 40 75
e 40 78
e 40 100
e 41 43
e 41 56
e 41 65
e 41 69
e 41 71
e 41 72
e 41 76
e 41 82
e 41 83
e 41 87
e 41 91
e 42 45
e 42 49
e 42 51
e 42 53
e 42 54
e 42 55
e 42 62
e 42 67
e 42 68
e 42 74
e 42 77
e 42 78
e 42 84
e 42 92
e 43 44
e 43 46
e 43 54
e 43 56
e 43 59
e 43 60
e 43 62
e 43 63
e 43 67
e 43 72
e 43 80
e 43 86
e 44 50
e 44 54
e 44 74
e 44 86
e 44 90
e 44 92
e 44 97
e 44 98
e 45 48
e 45 51
e 45 52
e 45 54
e 45 59
e 45 62
e 45 64
e 45 66
e 45 69
e 45 70
e 45 80
e 45 81
e 45 83
e 45 86
e 45 87
e 45 88
e 45 90
e 45 93
e 45 98
e 46 47
e 46 56
e 46 57
e 46 59
e 46 65
e 46 72
e 46 82
e 46 88
e 46 89
e 46 93
e 47 50
e 47 51
e 47 58
e 47 61
e 47 67
e 47 69
e 47 73
e 47 75
e 47 80
e 47 82
e 47 84
e 47 94
e 47 98
e 48 51
e 48 52
e 48 57
e 48 59
e 48 65
e 48 67
e 48 70
e 48 71
e 48 75
e 48 78
e 48 90
e 48 95
e 48 99
e 49 53
e 49 56
e 49 65
e 49 66
e 49 69
e 49 70
e 49 76
e 49 81
e 49 82
e 49 86
e 49 87
e 49 89
e 49 91
e 50 53
e 50 58
e 50 67
e 50 70
e 50 90
e 50 92
e 50 95
e 51 53
e 51 55
e 51 58
e 51 61
e 51 72
e 51 74
e 51 81
e 51 82
e 51 85
e 51 93
e 51 95
e 51 97
e 52 55
e 52 58
e 52 60
e 52 61
e 52 87
e 53 54
e 53 56
e 53 58
e 53 62
e 53 84
e 53 86
e 53 94
e 53 97
e 53 99
e 54 59
e 54 66
e 54 69
e 54 71
e 54 83
e 54 89
e 54 96
e 54 100
e 55 56
e 55 57
e 55 58
e 55 60
e 55 62
e 55 63
e 55 68
e 55 72
e 55 80
e 55 85
e 55 87
e 55 96
e 55 100
e 56 59
e 56 63
e 56 68
e 56 78
e 57 62
e 57 63
e 57 69
e 57 71
e 57 73
e 57 77
e 57 86
e 57 88
e 57 93
e 57 100
e 58 62
e 58 70
e 58 73
e 58 81
e 58 87
e 58 90
e 58 91
e 58 92
e 58 94
e 59 61
e 59 62
e 59 63
e 59 66
e 59 73
e 59 81
e 59 91
e 59 94
e 59 99
e 60 63
e 60 65
e 60 66
e 60 84
e 60 86
e 60 89
e 60 96
e 61 63
e 61 64
e 61 68
e 61 69
e 61 74
e 61 77
e 61 82
e 61 83
e 62 66
e 62 71
e 62 73
e 62 84
e 62 93
e 62 97
e 62 99
e 62 100
e 63 68
e 63 70
e 63 72
e 63 81
e 63 89
e 63 94
e 63 97
e 64 65
e 64 73
e 64 76
e 64 79
e 64 88
e 65 68
e 65 75
e 65 76
e 65 87
e 66 83
e 66 95
e 67 69
e 67 71
e 67 79
e 67 80
e 67 96
e 68 84
e 68 93
e 68 99
e 69 74
e 69 94
e 70 74
e 70 89
e 70 95
e 71 75
e 71 95
e 71 97
e 71 98
e 71 100
e 72 76
e 72 82
e 72 89
e 72 91
e 72 96
e 72 97
e 73 75
e 73 79
e 73 85
e 73 89
e 73 92
e 73 93
e 73 95
e 74 77
e 74 78
e 74 93
e 74 96
e 75 84
e 75 91
e 75 96
e 75 98
e 76 83
e 76 96
e 77 95
e 77 98
e 78 88
e 78 99
e 79 80
e 79 81
e 79 83
e 79 92
e 79 95
e 80 85
e 80 89
e 81 82
e 81 85
e 82 83
e 82 85
e 82 87
e 83 85
e 83 87
e 83 92
e 83 93
e 84 89
e 85 92
e 86 90
e 86 91
e 87 89
e 87 94
e 87 99
e 88 92
e 88 96
e 88 97
e 89 93
e 89 97
e 90 92
e 90 95
e 93 95
